n_machines = 10;
n_resources = 17;
n_jobs = 85;
horizon = 401;
LB = 40;
n_jobs_per_resource = [5, 5, 5, 5, 5, 5, 5, 5, 5, 5, 5, 5, 5, 5, 5, 5, 5];
duration = [1, 9, 4, 3, 7, 4, 6, 3, 6, 2, 6, 2, 2, 7, 7, 1, 1, 4, 9, 9, 9, 7, 3, 2, 3, 2, 7, 3, 6, 3, 1, 5, 4, 1, 6, 5, 5, 1, 2, 1, 7, 3, 9, 9, 7, 1, 9, 3, 9, 1, 7, 1, 6, 5, 5, 6, 9, 3, 7, 7, 6, 3, 3, 3, 1, 1, 7, 1, 1, 1, 8, 5, 2, 9, 7, 7, 7, 9, 8, 1, 8, 6, 4, 2, 8]